(set-info :source |printed by MathSAT|)
(declare-fun |.x{13}| () (Array Int Int))
(declare-fun |.x{18}| () (Array Int Int))
(declare-fun |.x{14}| () (Array Int Int))
(declare-fun |.x{19}| () (Array Int Int))
(declare-fun |.x{15}| () Int)
(declare-fun |.y{6}| () Int)
(declare-fun |.x{16}| () Int)
(declare-fun |.y{7}| () Int)
(declare-fun |.y{3}| () (Array Int Int))
(declare-fun |.x{17}| () (Array Int Int))
(declare-fun |.y{4}| () Int)
(declare-fun |.x{20}| () Int)
(declare-fun |.y{5}| () Int)
(declare-fun |.x{21}| () Int)
(declare-fun |.loc{2}| () Bool)
(declare-fun |.loc{3}| () Bool)
(declare-fun |.x{37}| () Int)
(define-fun .def_12 () Int (! |.x{15}| :next |.y{6}|))
(define-fun .def_74 () Bool (= .def_12 0))
(define-fun .def_22 () Bool (! |.loc{2}| :next |.loc{3}|))
(define-fun .def_25 () Bool (not .def_22))
(define-fun .def_75 () Bool (! (and .def_25 .def_74) :init true))
(define-fun .def_8 () (Array Int Int) (! |.x{13}| :next |.x{18}|))
(define-fun .def_72 () Bool (= .def_8 |.x{18}|))
(define-fun .def_10 () (Array Int Int) (! |.x{14}| :next |.x{19}|))
(define-fun .def_69 () Bool (= .def_10 |.x{19}|))
(define-fun .def_14 () Int (! |.x{16}| :next |.y{7}|))
(define-fun .def_64 () Bool (= .def_14 |.x{21}|))
(define-fun .def_62 () Bool (= |.x{20}| 0))
(define-fun .def_63 () Bool (and .def_25 .def_62))
(define-fun .def_65 () Bool (and .def_63 .def_64))
(define-fun .def_40 () Bool (<= .def_14 .def_12))
(define-fun .def_66 () Bool (and .def_40 .def_65))
(define-fun .def_47 () Int (* (- 1) |.x{20}|))
(define-fun .def_18 () Int (! |.y{4}| :next |.x{20}|))
(define-fun .def_57 () Int (+ .def_18 .def_47))
(define-fun .def_58 () Bool (= .def_57 (- 1)))
(define-fun .def_20 () Int (! |.y{5}| :next |.x{21}|))
(define-fun .def_49 () Int (+ .def_47 .def_20))
(define-fun .def_50 () Int (select .def_10 .def_49))
(define-fun .def_16 () (Array Int Int) (! |.y{3}| :next |.x{17}|))
(define-fun .def_51 () (Array Int Int) (store .def_16 .def_18 .def_50))
(define-fun .def_52 () Bool (= |.x{17}| .def_51))
(define-fun .def_45 () Bool (= .def_20 |.x{21}|))
(define-fun .def_43 () Bool (<= .def_20 .def_18))
(define-fun .def_44 () Bool (not .def_43))
(define-fun .def_46 () Bool (and .def_44 .def_45))
(define-fun .def_53 () Bool (and .def_46 .def_52))
(define-fun .def_59 () Bool (and .def_53 .def_58))
(define-fun .def_60 () Bool (and .def_22 .def_59))
(define-fun .def_67 () Bool (or .def_60 .def_66))
(define-fun .def_68 () Bool (and |.loc{3}| .def_67))
(define-fun .def_70 () Bool (and .def_68 .def_69))
(define-fun .def_41 () Bool (not .def_40))
(define-fun .def_30 () Int (* (- 1) |.y{6}|))
(define-fun .def_37 () Int (+ .def_12 .def_30))
(define-fun .def_38 () Bool (= .def_37 (- 1)))
(define-fun .def_32 () Int (+ .def_30 .def_14))
(define-fun .def_33 () Int (select .def_8 .def_32))
(define-fun .def_34 () (Array Int Int) (store .def_10 .def_12 .def_33))
(define-fun .def_35 () Bool (= |.x{19}| .def_34))
(define-fun .def_27 () Bool (= .def_14 |.y{7}|))
(define-fun .def_24 () Bool (not |.loc{3}|))
(define-fun .def_26 () Bool (and .def_24 .def_25))
(define-fun .def_28 () Bool (and .def_26 .def_27))
(define-fun .def_36 () Bool (and .def_28 .def_35))
(define-fun .def_39 () Bool (and .def_36 .def_38))
(define-fun .def_42 () Bool (and .def_39 .def_41))
(define-fun .def_71 () Bool (or .def_42 .def_70))
(define-fun .def_73 () Bool (! (and .def_71 .def_72) :trans true))
(define-fun .def_76 () Int (! |.x{37}| :next |.xpv{1}|))
(define-fun .def_83 () Bool (<= 0 .def_76))
(define-fun .def_84 () Bool (and .def_43 .def_83))
(define-fun .def_81 () Bool (<= .def_20 .def_76))
(define-fun .def_82 () Bool (not .def_81))
(define-fun .def_85 () Bool (and .def_82 .def_84))
(define-fun .def_78 () Int (select .def_16 .def_76))
(define-fun .def_77 () Int (select .def_8 .def_76))
(define-fun .def_79 () Bool (= .def_77 .def_78))
(define-fun .def_80 () Bool (not .def_79))
(define-fun .def_86 () Bool (and .def_80 .def_85))
(define-fun .def_87 () Bool (and .def_22 .def_86))
(define-fun .def_89 () Bool (! (not .def_87) :invar-property 0))
(assert true)
